Set parameter Username
Academic license - for non-commercial use only - expires 2024-10-29
Set parameter LazyConstraints to value 1
Set parameter TimeLimit to value 600
Gurobi Optimizer version 10.0.0 build v10.0.0rc2 (linux64)

CPU model: AMD FX(tm)-4300 Quad-Core Processor, instruction set [SSE2|AVX]
Thread count: 2 physical cores, 4 logical processors, using up to 4 threads

Optimize a model with 261 rows, 63 columns and 271 nonzeros
Model fingerprint: 0xa3c7a1d1
Variable types: 0 continuous, 63 integer (63 binary)
Coefficient statistics:
  Matrix range     [1e+00, 1e+00]
  Objective range  [1e+00, 1e+01]
  Bounds range     [1e+00, 1e+00]
  RHS range        [1e+00, 1e+00]
Presolve removed 257 rows and 5 columns
Presolve time: 0.00s
Presolved: 4 rows, 58 columns, 14 nonzeros
Variable types: 0 continuous, 58 integer (58 binary)

Root relaxation: objective 3.500000e+01, 4 iterations, 0.00 seconds (0.00 work units)

    Nodes    |    Current Node    |     Objective Bounds      |     Work
 Expl Unexpl |  Obj  Depth IntInf | Incumbent    BestBd   Gap | It/Node Time

     0     0   35.00000    0    -          -   35.00000      -     -    0s
     0     0   35.00000    0    -          -   35.00000      -     -    0s
     0     0   35.00000    0    5          -   35.00000      -     -    0s
     0     0   46.00000    0    -          -   46.00000      -     -    0s
     0     0   50.00000    0    -          -   50.00000      -     -    0s
     0     0   55.00000    0    -          -   55.00000      -     -    0s
     0     0   57.00000    0    -          -   57.00000      -     -    0s
     0     0   58.00000    0    -          -   58.00000      -     -    0s
     0     0   58.00000    0    -          -   58.00000      -     -    0s
     0     0   59.00000    0    -          -   59.00000      -     -    0s
     0     0   59.00000    0    -          -   59.00000      -     -    0s
     0     0   59.00000    0    -          -   59.00000      -     -    0s
     0     0   59.00000    0    -          -   59.00000      -     -    0s
H    0     0                     108.0000000   59.25000  45.1%     -    0s
     0     0   59.25000    0    6  108.00000   59.25000  45.1%     -    0s
     0     0   63.00000    0    -  108.00000   63.00000  41.7%     -    0s
     0     0   63.00000    0    4  108.00000   63.00000  41.7%     -    0s
H    0     0                      88.0000000   63.00000  28.4%     -    0s
     0     2   72.90000    0   13   88.00000   72.90000  17.2%     -    0s
H   12     9                      83.0000000   78.16667  5.82%  10.1    0s
H   40    14                      82.0000000   80.00000  2.44%   6.0    1s

Cutting planes:
  User: 33
  Lazy constraints: 74

Explored 60 nodes (348 simplex iterations) in 1.35 seconds (0.01 work units)
Thread count was 4 (of 4 available processors)

Solution count 4: 82 83 88 108 

Optimal solution found (tolerance 1.00e-04)
Best objective 8.200000000000e+01, best bound 8.200000000000e+01, gap 0.0000%

User-callback calls 425, time in user-callback 1.30 sec
